100 70029

 914 577
526 793
725 325
437 717
631 136
341 292
302 145
579 812
499 223
580 718
287 944
367 528
84 541
53 462
254 326
75 476
104 603
813 986
39 938
659 863
273 890
872 468
485 658
306 896
518 393
382 962
565 416
115 602
997 710
426 951
349 245
711 747
364 521
834 269
455 777
720 553
108 661
847 323
736 482
212 618
146 405
317 199
977 962
257 512
457 734
31 412
398 356
572 408
954 410
517 545
820 544
548 498
41 135
316 497
576 170
951 127
860 933
229 605
221 660
202 402
923 909
853 638
775 770
393 369
505 961
465 821
254 854
506 173
31 271
132 286
887 271
752 856
423 32
518 77
370 274
741 200
785 232
764 798
723 564
205 6
338 430
470 408
331 114
755 677
330 703
139 721
400 729
980 1
226 954
613 815
433 904
72 16
488 934
703 810
514 838
873 94
289 739
87 960
937 679
379 571
